#SOLVERNAME# PAJ_CPLEX_MOSEK_msd
#SOLVER# Pajarito.PajaritoSolver(3,3600.0,1.0e-5,true,CPLEX.CplexSolver(Any[(:CPX_PARAM_THREADS,1),(:CPX_PARAM_SCRIND,1),(:CPX_PARAM_EPINT,1.0e-8),(:CPX_PARAM_EPRHS,1.0e-7),(:CPX_PARAM_EPGAP,1.0e-5)]),Pajarito.UnsetSolver(),0,false,true,Mosek.MosekMathProgSolverInterface.MosekSolver(Any[(:LOG,0),(:NUM_THREADS,1)]),true,true,false,false,true,false,false,true,false,true,true,true,true,false,true,10.0,true,false,false,true,1.0e-10,1.0e-7)
#INSTANCE# shortfall_20_0.cbf.gz
#TIMELIMIT# 3600.0

Problem dimensions:
       variables |        85
     constraints |       151
   nonzeros in A |      1052

Cones summary:
Cone             | Count     | Min dim.  | Max dim. 
    Second order |         2 |        21 |        21

Variable types:
      continuous |        64
         integer |        21

Transforming data...               0.00s

Creating conic subproblem...       0.00s

Building MIP model...              0.00s

Solving conic relaxation...        0.00s
 - Relaxation status    =        Optimal
 - Relaxation objective =      -1.090489

Mixed integer rounding cuts applied:  4
Gomory fractional cuts applied:  3
User cuts applied:  141

Root node processing (before b&c):
  Real time             =    0.66 sec. (16.84 ticks)
Sequential b&c:
  Real time             =    0.01 sec. (6.88 ticks)
                          ------------
Total (root+branch&cut) =    0.67 sec. (23.72 ticks)
Warning: Control callbacks may disable some MIP features.
Tried aggregator 1 time.
MIP Presolve eliminated 126 rows and 0 columns.
MIP Presolve modified 47 coefficients.
Reduced MIP has 187 rows, 124 columns, and 1368 nonzeros.
Reduced MIP has 21 binaries, 0 generals, 0 SOSs, and 0 indicators.
Presolve time = 0.00 sec. (0.65 ticks)
Probing time = 0.00 sec. (0.04 ticks)
MIP emphasis: balance optimality and feasibility.
MIP search method: traditional branch-and-cut.
Parallel mode: none, using 1 thread.
Root relaxation solution time = 0.00 sec. (1.75 ticks)

        Nodes                                         Cuts/
   Node  Left     Objective  IInf  Best Integer    Best Bound    ItCnt     Gap

      0     0       -1.0905     2                     -1.0905      105         
*     0+    0                           -1.0902       -1.0905             0.02%
*     0+    0                           -1.0902       -1.0905             0.02%
*     0+    0                           -1.0902       -1.0905             0.02%
*     0+    0                           -1.0904       -1.0905             0.01%
      0     2       -1.0905     3       -1.0904       -1.0905      105    0.01%
Elapsed time = 0.03 sec. (21.07 ticks, tree = 0.01 MB, solutions = 2)
*     6     1      integral     0       -1.0905       -1.0905      156    0.00%
*    13     2      integral     0       -1.0905       -1.0905      311    0.00%
*    16     0      integral     0       -1.0905       -1.0905      350   -0.00%

Starting MIP-solver-driven algorithm

MIP-solver-driven algorithm summary:
 - Status               =        Optimal
 - Best feasible        =  -1.090489e+00
 - Best bound           =  -1.090489e+00
 - Relative opt. gap    =      2.192e-09
 - Total time (s)       =       5.84e-02

Timers (s):
 - Setup                =   1.41e-03
 -- Transform data      =   1.45e-04
 -- Create conic data   =   7.44e-04
 -- Create MIP data     =   5.22e-04
 - Algorithm            =   5.70e-02
 -- Solve relaxation    =   4.18e-03
 -- Get relaxation cuts =   5.92e-05
 -- MIP solver driving  =   5.25e-02
 -- Solve subproblems   =   1.13e-02
 -- Get subproblem cuts =   1.02e-03
 -- Get primal cuts     =   3.25e-04

Counters:
 - Lazy callbacks       =    21
 -- Integer repeats     =    14
 -- Conic subproblems   =     7
 --- Infeasible         =     0
 --- Optimal            =     7
 --- Suboptimal         =     0
 --- UserLimit          =     0
 --- ConicFailure       =     0
 --- Other status       =     0
 -- Feasible solutions  =     7
 --- From subproblems   =     7
 --- In lazy callback   =     0
 - Heuristic callbacks  =    11
 -- Solutions passed    =     4

Solution returned by conic solver

Outer-approximation cuts added:
Cone             | Relax.    | Violated  | Nonviol. 
    Second order |        40 |       193 |         0

0 numerically unstable cone duals encountered

Distance to feasibility (negative indicates strict feasibility):
Cone             | Variable  | Constraint
          Linear |  0.00e+00 |  1.11e-16
    Second order |        NA | -2.41e-09

Distance to integrality of integer/binary variables:
         integer |  0.00e+00


Implied bound cuts applied:  1
User cuts applied:  155

Root node processing (before b&c):
  Real time             =    0.03 sec. (21.06 ticks)
Sequential b&c:
  Real time             =    0.02 sec. (20.14 ticks)
                          ------------
Total (root+branch&cut) =    0.05 sec. (41.20 ticks)
#STATUS# Optimal
#OBJVAL# -1.090489461543937
#OBJBOUND# -1.0904894639340859
#TIMESOLVER# 0.05839800834655762
#TIMEALL# 0.05881094932556152
#SOLUTION# [0.14509089383607657,0.01621760477093333,0.1574965637391316,-0.0,0.08222989732982444,0.06286138404913857,0.02070853338306156,-0.0,-0.0,-0.0,0.0419896113327375,-0.0,0.16089654013531207,-0.0,0.03461977291440138,-0.0,-0.0,-0.0,-0.0,-0.0,0.277889198509383,0.0,1.0,1.0,1.0,-0.0,1.0,1.0,1.0,-0.0,-0.0,-0.0,1.0,0.0,1.0,-0.0,1.0,-0.0,0.0,0.0,0.0,0.0,1.0,0.05357470972708206,0.021409723551908233,0.052521437846704,0.014407011516443562,0.10344068931282525,0.019971308931396054,0.014362962966926185,0.022332490496604743,0.012719777269669054,0.016811751716182412,0.04000803936316113,0.012139926607610627,0.08593320712047066,0.011639861578728154,0.02764993033226425,0.02971414718279802,0.017399553365159463,0.0156379414600069,0.018850945891269986,0.013115464039210406,0.19048946154393698,0.11972464839589149,0.04784480658062664,0.1173708772567491,0.03219568331827737,0.2311613113891754,0.04463034801303722,0.03209724700139982,0.04990693530830295,0.02842518175166834,0.03756961210601766,0.08940689497272497,0.02712937600692948,0.19203693422586882,0.026011869070111278,0.06178994163598491,0.06640289498471957,0.03888318610592926,0.03494647105831051,0.04212664670064277,0.02930943216757488,0.3904894615439371]
